NAME: bip_30_3
TYPE: TSP
COMMENT: bip_30_3
DIMENSION: 30
EDGE_WEIGHT_TYPE: EUC_2D
NODE_COORD_SECTION
1 73 19
2 97 97
3 7 30
4 53 43
5 47 42
6 29 7
7 82 1
8 65 40
9 69 7
10 39 12
11 69 61
12 97 52
13 15 67
14 58 45
15 46 92
16 474 472
17 405 476
18 499 441
19 428 484
20 489 468
21 467 468
22 487 492
23 403 439
24 429 476
25 417 415
26 455 450
27 414 433
28 481 472
29 493 495
30 495 496
